\ENCODING=ISO-8859-1
\Problem name: IloCplex

Minimize
 obj1: Y(0) + Y(1) + Y(2) + Y(3) + Y(4)
Subject To
 R_Cov(0)#0:         X(0,0) + X(1,0) + X(2,0) + X(3,0) + X(4,0)  = 1
 R_Cov(1)#1:         X(0,1) + X(1,1) + X(2,1) + X(3,1) + X(4,1)  = 1
 R_Cov(2)#2:         X(0,2) + X(1,2) + X(2,2) + X(3,2) + X(4,2)  = 1
 R_Cov(3)#3:         X(0,3) + X(1,3) + X(2,3) + X(3,3) + X(4,3)  = 1
 R_Cov(4)#4:         X(0,4) + X(1,4) + X(2,4) + X(3,4) + X(4,4)  = 1
 R_Rel(0,0)#5:       X(0,0) - Y(0) <= 0
 R_Rel(0,1)#6:       X(0,1) - Y(0) <= 0
 R_Rel(0,2)#7:       X(0,2) - Y(0) <= 0
 R_Rel(0,3)#8:       X(0,3) - Y(0) <= 0
 R_Rel(0,4)#9:       X(0,4) - Y(0) <= 0
 R_Rel(1,0)#10:      X(1,0) - Y(1) <= 0
 R_Rel(1,1)#11:      X(1,1) - Y(1) <= 0
 R_Rel(1,2)#12:      X(1,2) - Y(1) <= 0
 R_Rel(1,3)#13:      X(1,3) - Y(1) <= 0
 R_Rel(1,4)#14:      X(1,4) - Y(1) <= 0
 R_Rel(2,0)#15:      X(2,0) - Y(2) <= 0
 R_Rel(2,1)#16:      X(2,1) - Y(2) <= 0
 R_Rel(2,2)#17:      X(2,2) - Y(2) <= 0
 R_Rel(2,3)#18:      X(2,3) - Y(2) <= 0
 R_Rel(2,4)#19:      X(2,4) - Y(2) <= 0
 R_Rel(3,0)#20:      X(3,0) - Y(3) <= 0
 R_Rel(3,1)#21:      X(3,1) - Y(3) <= 0
 R_Rel(3,2)#22:      X(3,2) - Y(3) <= 0
 R_Rel(3,3)#23:      X(3,3) - Y(3) <= 0
 R_Rel(3,4)#24:      X(3,4) - Y(3) <= 0
 R_Rel(4,0)#25:      X(4,0) - Y(4) <= 0
 R_Rel(4,1)#26:      X(4,1) - Y(4) <= 0
 R_Rel(4,2)#27:      X(4,2) - Y(4) <= 0
 R_Rel(4,3)#28:      X(4,3) - Y(4) <= 0
 R_Rel(4,4)#29:      X(4,4) - Y(4) <= 0
 R_Adj(C.0)(0,1)#30: X(0,0) + X(0,1) <= 1
 R_Adj(C.1)(0,1)#31: X(1,0) + X(1,1) <= 1
 R_Adj(C.2)(0,1)#32: X(2,0) + X(2,1) <= 1
 R_Adj(C.3)(0,1)#33: X(3,0) + X(3,1) <= 1
 R_Adj(C.4)(0,1)#34: X(4,0) + X(4,1) <= 1
 R_Adj(C.0)(0,2)#35: X(0,0) + X(0,2) <= 1
 R_Adj(C.1)(0,2)#36: X(1,0) + X(1,2) <= 1
 R_Adj(C.2)(0,2)#37: X(2,0) + X(2,2) <= 1
 R_Adj(C.3)(0,2)#38: X(3,0) + X(3,2) <= 1
 R_Adj(C.4)(0,2)#39: X(4,0) + X(4,2) <= 1
 R_Adj(C.0)(0,3)#40: X(0,3) <= 1
 R_Adj(C.1)(0,3)#41: X(1,3) <= 1
 R_Adj(C.2)(0,3)#42: X(2,3) <= 1
 R_Adj(C.3)(0,3)#43: X(3,3) <= 1
 R_Adj(C.4)(0,3)#44: X(4,3) <= 1
 R_Adj(C.0)(0,4)#45: X(0,4) <= 1
 R_Adj(C.1)(0,4)#46: X(1,4) <= 1
 R_Adj(C.2)(0,4)#47: X(2,4) <= 1
 R_Adj(C.3)(0,4)#48: X(3,4) <= 1
 R_Adj(C.4)(0,4)#49: X(4,4) <= 1
 R_Adj(C.0)(1,2)#50: X(0,1) + X(0,2) <= 1
 R_Adj(C.1)(1,2)#51: X(1,1) + X(1,2) <= 1
 R_Adj(C.2)(1,2)#52: X(2,1) + X(2,2) <= 1
 R_Adj(C.3)(1,2)#53: X(3,1) + X(3,2) <= 1
 R_Adj(C.4)(1,2)#54: X(4,1) + X(4,2) <= 1
 R_Adj(C.0)(1,3)#55: X(0,1) + X(0,3) <= 1
 R_Adj(C.1)(1,3)#56: X(1,1) + X(1,3) <= 1
 R_Adj(C.2)(1,3)#57: X(2,1) + X(2,3) <= 1
 R_Adj(C.3)(1,3)#58: X(3,1) + X(3,3) <= 1
 R_Adj(C.4)(1,3)#59: X(4,1) + X(4,3) <= 1
 R_Adj(C.0)(1,4)#60: X(0,4) <= 1
 R_Adj(C.1)(1,4)#61: X(1,4) <= 1
 R_Adj(C.2)(1,4)#62: X(2,4) <= 1
 R_Adj(C.3)(1,4)#63: X(3,4) <= 1
 R_Adj(C.4)(1,4)#64: X(4,4) <= 1
 R_Adj(C.0)(2,3)#65: X(0,2) + X(0,3) <= 1
 R_Adj(C.1)(2,3)#66: X(1,2) + X(1,3) <= 1
 R_Adj(C.2)(2,3)#67: X(2,2) + X(2,3) <= 1
 R_Adj(C.3)(2,3)#68: X(3,2) + X(3,3) <= 1
 R_Adj(C.4)(2,3)#69: X(4,2) + X(4,3) <= 1
 R_Adj(C.0)(2,4)#70: X(0,2) + X(0,4) <= 1
 R_Adj(C.1)(2,4)#71: X(1,2) + X(1,4) <= 1
 R_Adj(C.2)(2,4)#72: X(2,2) + X(2,4) <= 1
 R_Adj(C.3)(2,4)#73: X(3,2) + X(3,4) <= 1
 R_Adj(C.4)(2,4)#74: X(4,2) + X(4,4) <= 1
 R_Adj(C.0)(3,4)#75: X(0,3) + X(0,4) <= 1
 R_Adj(C.1)(3,4)#76: X(1,3) + X(1,4) <= 1
 R_Adj(C.2)(3,4)#77: X(2,3) + X(2,4) <= 1
 R_Adj(C.3)(3,4)#78: X(3,3) + X(3,4) <= 1
 R_Adj(C.4)(3,4)#79: X(4,3) + X(4,4) <= 1
Bounds
 0 <= X(0,0) <= 1
 0 <= X(0,1) <= 1
 0 <= X(0,2) <= 1
 0 <= X(0,3) <= 1
 0 <= X(0,4) <= 1
 0 <= X(1,0) <= 1
 0 <= X(1,1) <= 1
 0 <= X(1,2) <= 1
 0 <= X(1,3) <= 1
 0 <= X(1,4) <= 1
 0 <= X(2,0) <= 1
 0 <= X(2,1) <= 1
 0 <= X(2,2) <= 1
 0 <= X(2,3) <= 1
 0 <= X(2,4) <= 1
 0 <= X(3,0) <= 1
 0 <= X(3,1) <= 1
 0 <= X(3,2) <= 1
 0 <= X(3,3) <= 1
 0 <= X(3,4) <= 1
 0 <= X(4,0) <= 1
 0 <= X(4,1) <= 1
 0 <= X(4,2) <= 1
 0 <= X(4,3) <= 1
 0 <= X(4,4) <= 1
 0 <= Y(0) <= 1
 0 <= Y(1) <= 1
 0 <= Y(2) <= 1
 0 <= Y(3) <= 1
 0 <= Y(4) <= 1
Binaries
 X(0,0)  X(0,1)  X(0,2)  X(0,3)  X(0,4)  X(1,0)  X(1,1)  X(1,2)  X(1,3) 
 X(1,4)  X(2,0)  X(2,1)  X(2,2)  X(2,3)  X(2,4)  X(3,0)  X(3,1)  X(3,2) 
 X(3,3)  X(3,4)  X(4,0)  X(4,1)  X(4,2)  X(4,3)  X(4,4)  Y(0)  Y(1)  Y(2) 
 Y(3)  Y(4) 
End
